\ Model Capital Budgeting Problem
\ LP format - for model browsing. Use MPS format to capture full model detail.
Maximize
  37896.1796437305 x[0] + 17077.7992122151 x[1] + 43327.0922008699 x[2]
   + 42382.8958500772 x[3] + 8899.8304125053 x[4]
Subject To
 Budget: 34307.4156748661 x[0] + 82737.929692608 x[1]
   + 58435.561580343 x[2] + 53514.7753494877 x[3] + 49201.7043703505 x[4]
   <= 486189.492495231
 Regulatory_0: x[0] <= 1
 Regulatory_1: x[1] <= 0
 Regulatory_2: x[2] <= 1
 Regulatory_3: x[3] <= 1
 Regulatory_4: x[4] <= 1
Bounds
Binaries
 x[0] x[1] x[2] x[3] x[4]
End
